NAME check/instances/gap/gap8_4.txt
ROWS  
 N Obj        
 E m_job_;1;        
 E m_job_;2;        
 E m_job_;3;        
 E m_job_;4;        
 E m_job_;5;        
 E m_job_;6;        
 E m_job_;7;        
 E m_job_;8;        
 E m_job_;9;        
 E m_job_;10;        
 E m_job_;11;        
 E m_job_;12;        
 E m_job_;13;        
 E m_job_;14;        
 E m_job_;15;        
 E m_job_;16;        
 E m_job_;17;        
 E m_job_;18;        
 E m_job_;19;        
 E m_job_;20;        
 E m_job_;21;        
 E m_job_;22;        
 E m_job_;23;        
 E m_job_;24;        
 E m_job_;25;        
 E m_job_;26;        
 E m_job_;27;        
 E m_job_;28;        
 E m_job_;29;        
 E m_job_;30;        
 E m_job_;31;        
 E m_job_;32;        
 E m_job_;33;        
 E m_job_;34;        
 E m_job_;35;        
 E m_job_;36;        
 E m_job_;37;        
 E m_job_;38;        
 E m_job_;39;        
 E m_job_;40;        
 E m_job_;41;        
 E m_job_;42;        
 E m_job_;43;        
 E m_job_;44;        
 E m_job_;45;        
 E m_job_;46;        
 E m_job_;47;        
 E m_job_;48;        
 L b_capa_;1;        
 L b_capa_;2;        
 L b_capa_;3;        
 L b_capa_;4;        
 L b_capa_;5;        
 L b_capa_;6;        
 L b_capa_;7;        
 L b_capa_;8;        
COLUMNS  
   INTSTART 'MARKER'   'INTORG'  
   x#1#1 Obj -24 m_job_;1; 1
   x#1#1 b_capa_;1; 16    
   x#1#2 m_job_;2; 1 Obj -19
   x#1#2 b_capa_;1; 6    
   x#1#3 m_job_;3; 1 Obj -23
   x#1#3 b_capa_;1; 7    
   x#1#4 Obj -23 m_job_;4; 1
   x#1#4 b_capa_;1; 15    
   x#1#5 b_capa_;1; 5 m_job_;5; 1
   x#1#5 Obj -24    
   x#1#6 b_capa_;1; 8 Obj -22
   x#1#6 m_job_;6; 1    
   x#1#7 Obj -23 m_job_;7; 1
   x#1#7 b_capa_;1; 11    
   x#1#8 b_capa_;1; 14 Obj -25
   x#1#8 m_job_;8; 1    
   x#1#9 b_capa_;1; 13 Obj -20
   x#1#9 m_job_;9; 1    
   x#1#10 m_job_;10; 1 b_capa_;1; 7
   x#1#10 Obj -17    
   x#1#11 m_job_;11; 1 Obj -16
   x#1#11 b_capa_;1; 16    
   x#1#12 Obj -19 b_capa_;1; 8
   x#1#12 m_job_;12; 1    
   x#1#13 b_capa_;1; 7 Obj -21
   x#1#13 m_job_;13; 1    
   x#1#14 b_capa_;1; 8 Obj -23
   x#1#14 m_job_;14; 1    
   x#1#15 b_capa_;1; 6 Obj -16
   x#1#15 m_job_;15; 1    
   x#1#16 Obj -17 b_capa_;1; 15
   x#1#16 m_job_;16; 1    
   x#1#17 b_capa_;1; 8 m_job_;17; 1
   x#1#17 Obj -18    
   x#1#18 b_capa_;1; 13 m_job_;18; 1
   x#1#18 Obj -18    
   x#1#19 m_job_;19; 1 b_capa_;1; 8
   x#1#19 Obj -20    
   x#1#20 b_capa_;1; 6 m_job_;20; 1
   x#1#20 Obj -21    
   x#1#21 Obj -21 b_capa_;1; 5
   x#1#21 m_job_;21; 1    
   x#1#22 Obj -21 m_job_;22; 1
   x#1#22 b_capa_;1; 13    
   x#1#23 m_job_;23; 1 b_capa_;1; 5
   x#1#23 Obj -20    
   x#1#24 Obj -19 m_job_;24; 1
   x#1#24 b_capa_;1; 9    
   x#1#25 Obj -20 m_job_;25; 1
   x#1#25 b_capa_;1; 7    
   x#1#26 m_job_;26; 1 Obj -18
   x#1#26 b_capa_;1; 11    
   x#1#27 Obj -24 m_job_;27; 1
   x#1#27 b_capa_;1; 11    
   x#1#28 Obj -22 m_job_;28; 1
   x#1#28 b_capa_;1; 7    
   x#1#29 Obj -22 m_job_;29; 1
   x#1#29 b_capa_;1; 14    
   x#1#30 m_job_;30; 1 b_capa_;1; 9
   x#1#30 Obj -18    
   x#1#31 Obj -22 b_capa_;1; 8
   x#1#31 m_job_;31; 1    
   x#1#32 b_capa_;1; 15 Obj -19
   x#1#32 m_job_;32; 1    
   x#1#33 m_job_;33; 1 Obj -18
   x#1#33 b_capa_;1; 9    
   x#1#34 Obj -16 b_capa_;1; 7
   x#1#34 m_job_;34; 1    
   x#1#35 b_capa_;1; 9 Obj -19
   x#1#35 m_job_;35; 1    
   x#1#36 m_job_;36; 1 Obj -18
   x#1#36 b_capa_;1; 14    
   x#1#37 Obj -25 b_capa_;1; 16
   x#1#37 m_job_;37; 1    
   x#1#38 m_job_;38; 1 b_capa_;1; 5
   x#1#38 Obj -18    
   x#1#39 b_capa_;1; 7 Obj -18
   x#1#39 m_job_;39; 1    
   x#1#40 m_job_;40; 1 Obj -19
   x#1#40 b_capa_;1; 5    
   x#1#41 b_capa_;1; 16 Obj -20
   x#1#41 m_job_;41; 1    
   x#1#42 Obj -21 m_job_;42; 1
   x#1#42 b_capa_;1; 5    
   x#1#43 Obj -22 b_capa_;1; 14
   x#1#43 m_job_;43; 1    
   x#1#44 m_job_;44; 1 b_capa_;1; 5
   x#1#44 Obj -18    
   x#1#45 m_job_;45; 1 Obj -20
   x#1#45 b_capa_;1; 9    
   x#1#46 Obj -18 m_job_;46; 1
   x#1#46 b_capa_;1; 5    
   x#1#47 b_capa_;1; 10 Obj -20
   x#1#47 m_job_;47; 1    
   x#1#48 Obj -25 b_capa_;1; 16
   x#1#48 m_job_;48; 1    
   x#2#1 b_capa_;2; 7 Obj -18
   x#2#1 m_job_;1; 1    
   x#2#2 m_job_;2; 1 b_capa_;2; 13
   x#2#2 Obj -21    
   x#2#3 Obj -16 b_capa_;2; 10
   x#2#3 m_job_;3; 1    
   x#2#4 b_capa_;2; 7 m_job_;4; 1
   x#2#4 Obj -19    
   x#2#5 m_job_;5; 1 Obj -18
   x#2#5 b_capa_;2; 15    
   x#2#6 m_job_;6; 1 b_capa_;2; 15
   x#2#6 Obj -18    
   x#2#7 Obj -23 b_capa_;2; 16
   x#2#7 m_job_;7; 1    
   x#2#8 Obj -19 m_job_;8; 1
   x#2#8 b_capa_;2; 14    
   x#2#9 b_capa_;2; 6 m_job_;9; 1
   x#2#9 Obj -17    
   x#2#10 b_capa_;2; 13 m_job_;10; 1
   x#2#10 Obj -20    
   x#2#11 b_capa_;2; 16 Obj -22
   x#2#11 m_job_;11; 1    
   x#2#12 Obj -20 m_job_;12; 1
   x#2#12 b_capa_;2; 8    
   x#2#13 Obj -25 m_job_;13; 1
   x#2#13 b_capa_;2; 5    
   x#2#14 Obj -22 m_job_;14; 1
   x#2#14 b_capa_;2; 15    
   x#2#15 Obj -25 b_capa_;2; 14
   x#2#15 m_job_;15; 1    
   x#2#16 m_job_;16; 1 Obj -17
   x#2#16 b_capa_;2; 9    
   x#2#17 m_job_;17; 1 b_capa_;2; 11
   x#2#17 Obj -18    
   x#2#18 b_capa_;2; 10 m_job_;18; 1
   x#2#18 Obj -22    
   x#2#19 b_capa_;2; 9 m_job_;19; 1
   x#2#19 Obj -20    
   x#2#20 Obj -18 m_job_;20; 1
   x#2#20 b_capa_;2; 16    
   x#2#21 b_capa_;2; 7 m_job_;21; 1
   x#2#21 Obj -21    
   x#2#22 Obj -22 b_capa_;2; 12
   x#2#22 m_job_;22; 1    
   x#2#23 Obj -23 m_job_;23; 1
   x#2#23 b_capa_;2; 10    
   x#2#24 Obj -23 m_job_;24; 1
   x#2#24 b_capa_;2; 7    
   x#2#25 m_job_;25; 1 Obj -17
   x#2#25 b_capa_;2; 10    
   x#2#26 m_job_;26; 1 Obj -24
   x#2#26 b_capa_;2; 5    
   x#2#27 Obj -16 b_capa_;2; 13
   x#2#27 m_job_;27; 1    
   x#2#28 b_capa_;2; 10 Obj -22
   x#2#28 m_job_;28; 1    
   x#2#29 m_job_;29; 1 b_capa_;2; 11
   x#2#29 Obj -25    
   x#2#30 Obj -25 m_job_;30; 1
   x#2#30 b_capa_;2; 9    
   x#2#31 b_capa_;2; 9 Obj -23
   x#2#31 m_job_;31; 1    
   x#2#32 Obj -22 b_capa_;2; 10
   x#2#32 m_job_;32; 1    
   x#2#33 b_capa_;2; 8 Obj -22
   x#2#33 m_job_;33; 1    
   x#2#34 Obj -23 m_job_;34; 1
   x#2#34 b_capa_;2; 14    
   x#2#35 m_job_;35; 1 Obj -20
   x#2#35 b_capa_;2; 10    
   x#2#36 b_capa_;2; 7 Obj -20
   x#2#36 m_job_;36; 1    
   x#2#37 b_capa_;2; 10 Obj -25
   x#2#37 m_job_;37; 1    
   x#2#38 m_job_;38; 1 Obj -21
   x#2#38 b_capa_;2; 12    
   x#2#39 m_job_;39; 1 Obj -15
   x#2#39 b_capa_;2; 15    
   x#2#40 m_job_;40; 1 b_capa_;2; 15
   x#2#40 Obj -15    
   x#2#41 m_job_;41; 1 Obj -25
   x#2#41 b_capa_;2; 11    
   x#2#42 m_job_;42; 1 Obj -22
   x#2#42 b_capa_;2; 10    
   x#2#43 b_capa_;2; 7 Obj -24
   x#2#43 m_job_;43; 1    
   x#2#44 Obj -24 b_capa_;2; 15
   x#2#44 m_job_;44; 1    
   x#2#45 b_capa_;2; 14 Obj -23
   x#2#45 m_job_;45; 1    
   x#2#46 b_capa_;2; 7 Obj -22
   x#2#46 m_job_;46; 1    
   x#2#47 m_job_;47; 1 Obj -25
   x#2#47 b_capa_;2; 15    
   x#2#48 m_job_;48; 1 b_capa_;2; 5
   x#2#48 Obj -17    
   x#3#1 b_capa_;3; 15 Obj -20
   x#3#1 m_job_;1; 1    
   x#3#2 b_capa_;3; 10 Obj -17
   x#3#2 m_job_;2; 1    
   x#3#3 m_job_;3; 1 Obj -21
   x#3#3 b_capa_;3; 11    
   x#3#4 m_job_;4; 1 b_capa_;3; 10
   x#3#4 Obj -22    
   x#3#5 m_job_;5; 1 Obj -22
   x#3#5 b_capa_;3; 8    
   x#3#6 m_job_;6; 1 b_capa_;3; 7
   x#3#6 Obj -16    
   x#3#7 Obj -22 b_capa_;3; 8
   x#3#7 m_job_;7; 1    
   x#3#8 Obj -24 b_capa_;3; 9
   x#3#8 m_job_;8; 1    
   x#3#9 b_capa_;3; 13 m_job_;9; 1
   x#3#9 Obj -25    
   x#3#10 m_job_;10; 1 b_capa_;3; 7
   x#3#10 Obj -15    
   x#3#11 Obj -22 b_capa_;3; 15
   x#3#11 m_job_;11; 1    
   x#3#12 Obj -18 b_capa_;3; 14
   x#3#12 m_job_;12; 1    
   x#3#13 b_capa_;3; 13 Obj -25
   x#3#13 m_job_;13; 1    
   x#3#14 Obj -23 m_job_;14; 1
   x#3#14 b_capa_;3; 6    
   x#3#15 Obj -23 b_capa_;3; 10
   x#3#15 m_job_;15; 1    
   x#3#16 b_capa_;3; 10 Obj -15
   x#3#16 m_job_;16; 1    
   x#3#17 m_job_;17; 1 Obj -21
   x#3#17 b_capa_;3; 7    
   x#3#18 m_job_;18; 1 b_capa_;3; 9
   x#3#18 Obj -23    
   x#3#19 b_capa_;3; 7 Obj -18
   x#3#19 m_job_;19; 1    
   x#3#20 b_capa_;3; 5 m_job_;20; 1
   x#3#20 Obj -22    
   x#3#21 b_capa_;3; 12 m_job_;21; 1
   x#3#21 Obj -19    
   x#3#22 b_capa_;3; 8 Obj -20
   x#3#22 m_job_;22; 1    
   x#3#23 m_job_;23; 1 Obj -17
   x#3#23 b_capa_;3; 5    
   x#3#24 b_capa_;3; 16 Obj -22
   x#3#24 m_job_;24; 1    
   x#3#25 m_job_;25; 1 b_capa_;3; 11
   x#3#25 Obj -15    
   x#3#26 m_job_;26; 1 Obj -16
   x#3#26 b_capa_;3; 5    
   x#3#27 m_job_;27; 1 b_capa_;3; 15
   x#3#27 Obj -19    
   x#3#28 m_job_;28; 1 b_capa_;3; 12
   x#3#28 Obj -20    
   x#3#29 b_capa_;3; 14 m_job_;29; 1
   x#3#29 Obj -19    
   x#3#30 m_job_;30; 1 b_capa_;3; 11
   x#3#30 Obj -21    
   x#3#31 b_capa_;3; 5 Obj -19
   x#3#31 m_job_;31; 1    
   x#3#32 Obj -18 m_job_;32; 1
   x#3#32 b_capa_;3; 5    
   x#3#33 Obj -24 b_capa_;3; 13
   x#3#33 m_job_;33; 1    
   x#3#34 Obj -24 b_capa_;3; 11
   x#3#34 m_job_;34; 1    
   x#3#35 m_job_;35; 1 Obj -25
   x#3#35 b_capa_;3; 8    
   x#3#36 Obj -16 b_capa_;3; 8
   x#3#36 m_job_;36; 1    
   x#3#37 Obj -15 m_job_;37; 1
   x#3#37 b_capa_;3; 15    
   x#3#38 Obj -21 b_capa_;3; 14
   x#3#38 m_job_;38; 1    
   x#3#39 b_capa_;3; 11 m_job_;39; 1
   x#3#39 Obj -15    
   x#3#40 Obj -23 b_capa_;3; 5
   x#3#40 m_job_;40; 1    
   x#3#41 b_capa_;3; 8 m_job_;41; 1
   x#3#41 Obj -15    
   x#3#42 m_job_;42; 1 b_capa_;3; 11
   x#3#42 Obj -17    
   x#3#43 m_job_;43; 1 Obj -16
   x#3#43 b_capa_;3; 7    
   x#3#44 m_job_;44; 1 Obj -24
   x#3#44 b_capa_;3; 15    
   x#3#45 m_job_;45; 1 b_capa_;3; 5
   x#3#45 Obj -16    
   x#3#46 Obj -16 m_job_;46; 1
   x#3#46 b_capa_;3; 8    
   x#3#47 b_capa_;3; 16 Obj -25
   x#3#47 m_job_;47; 1    
   x#3#48 b_capa_;3; 8 m_job_;48; 1
   x#3#48 Obj -25    
   x#4#1 Obj -18 m_job_;1; 1
   x#4#1 b_capa_;4; 8    
   x#4#2 Obj -19 m_job_;2; 1
   x#4#2 b_capa_;4; 11    
   x#4#3 m_job_;3; 1 b_capa_;4; 15
   x#4#3 Obj -17    
   x#4#4 Obj -23 b_capa_;4; 7
   x#4#4 m_job_;4; 1    
   x#4#5 m_job_;5; 1 Obj -22
   x#4#5 b_capa_;4; 14    
   x#4#6 b_capa_;4; 6 m_job_;6; 1
   x#4#6 Obj -23    
   x#4#7 b_capa_;4; 9 Obj -22
   x#4#7 m_job_;7; 1    
   x#4#8 b_capa_;4; 10 m_job_;8; 1
   x#4#8 Obj -24    
   x#4#9 m_job_;9; 1 b_capa_;4; 8
   x#4#9 Obj -24    
   x#4#10 m_job_;10; 1 Obj -15
   x#4#10 b_capa_;4; 10    
   x#4#11 Obj -20 b_capa_;4; 8
   x#4#11 m_job_;11; 1    
   x#4#12 m_job_;12; 1 Obj -16
   x#4#12 b_capa_;4; 12    
   x#4#13 m_job_;13; 1 Obj -20
   x#4#13 b_capa_;4; 7    
   x#4#14 b_capa_;4; 8 m_job_;14; 1
   x#4#14 Obj -18    
   x#4#15 b_capa_;4; 14 m_job_;15; 1
   x#4#15 Obj -17    
   x#4#16 b_capa_;4; 5 m_job_;16; 1
   x#4#16 Obj -18    
   x#4#17 m_job_;17; 1 b_capa_;4; 15
   x#4#17 Obj -20    
   x#4#18 m_job_;18; 1 Obj -19
   x#4#18 b_capa_;4; 7    
   x#4#19 b_capa_;4; 6 Obj -19
   x#4#19 m_job_;19; 1    
   x#4#20 Obj -24 b_capa_;4; 15
   x#4#20 m_job_;20; 1    
   x#4#21 m_job_;21; 1 b_capa_;4; 16
   x#4#21 Obj -22    
   x#4#22 m_job_;22; 1 b_capa_;4; 7
   x#4#22 Obj -22    
   x#4#23 b_capa_;4; 13 m_job_;23; 1
   x#4#23 Obj -24    
   x#4#24 m_job_;24; 1 Obj -22
   x#4#24 b_capa_;4; 13    
   x#4#25 m_job_;25; 1 Obj -16
   x#4#25 b_capa_;4; 8    
   x#4#26 m_job_;26; 1 Obj -17
   x#4#26 b_capa_;4; 16    
   x#4#27 m_job_;27; 1 Obj -19
   x#4#27 b_capa_;4; 7    
   x#4#28 b_capa_;4; 15 Obj -19
   x#4#28 m_job_;28; 1    
   x#4#29 m_job_;29; 1 Obj -15
   x#4#29 b_capa_;4; 13    
   x#4#30 Obj -22 m_job_;30; 1
   x#4#30 b_capa_;4; 5    
   x#4#31 Obj -17 m_job_;31; 1
   x#4#31 b_capa_;4; 9    
   x#4#32 m_job_;32; 1 b_capa_;4; 9
   x#4#32 Obj -18    
   x#4#33 b_capa_;4; 8 Obj -25
   x#4#33 m_job_;33; 1    
   x#4#34 b_capa_;4; 8 Obj -20
   x#4#34 m_job_;34; 1    
   x#4#35 b_capa_;4; 16 m_job_;35; 1
   x#4#35 Obj -18    
   x#4#36 Obj -17 m_job_;36; 1
   x#4#36 b_capa_;4; 12    
   x#4#37 m_job_;37; 1 Obj -17
   x#4#37 b_capa_;4; 7    
   x#4#38 b_capa_;4; 10 Obj -20
   x#4#38 m_job_;38; 1    
   x#4#39 m_job_;39; 1 Obj -16
   x#4#39 b_capa_;4; 5    
   x#4#40 Obj -24 m_job_;40; 1
   x#4#40 b_capa_;4; 5    
   x#4#41 m_job_;41; 1 b_capa_;4; 14
   x#4#41 Obj -19    
   x#4#42 Obj -19 b_capa_;4; 14
   x#4#42 m_job_;42; 1    
   x#4#43 m_job_;43; 1 b_capa_;4; 14
   x#4#43 Obj -15    
   x#4#44 Obj -16 b_capa_;4; 9
   x#4#44 m_job_;44; 1    
   x#4#45 b_capa_;4; 11 Obj -20
   x#4#45 m_job_;45; 1    
   x#4#46 m_job_;46; 1 b_capa_;4; 8
   x#4#46 Obj -19    
   x#4#47 m_job_;47; 1 Obj -23
   x#4#47 b_capa_;4; 10    
   x#4#48 Obj -16 m_job_;48; 1
   x#4#48 b_capa_;4; 7    
   x#5#1 m_job_;1; 1 Obj -21
   x#5#1 b_capa_;5; 12    
   x#5#2 b_capa_;5; 7 Obj -19
   x#5#2 m_job_;2; 1    
   x#5#3 b_capa_;5; 14 m_job_;3; 1
   x#5#3 Obj -17    
   x#5#4 b_capa_;5; 11 Obj -18
   x#5#4 m_job_;4; 1    
   x#5#5 Obj -24 m_job_;5; 1
   x#5#5 b_capa_;5; 8    
   x#5#6 m_job_;6; 1 b_capa_;5; 16
   x#5#6 Obj -25    
   x#5#7 b_capa_;5; 16 Obj -25
   x#5#7 m_job_;7; 1    
   x#5#8 Obj -24 m_job_;8; 1
   x#5#8 b_capa_;5; 16    
   x#5#9 m_job_;9; 1 b_capa_;5; 5
   x#5#9 Obj -22    
   x#5#10 b_capa_;5; 7 Obj -20
   x#5#10 m_job_;10; 1    
   x#5#11 Obj -23 b_capa_;5; 5
   x#5#11 m_job_;11; 1    
   x#5#12 b_capa_;5; 11 m_job_;12; 1
   x#5#12 Obj -23    
   x#5#13 b_capa_;5; 5 Obj -20
   x#5#13 m_job_;13; 1    
   x#5#14 b_capa_;5; 9 m_job_;14; 1
   x#5#14 Obj -23    
   x#5#15 b_capa_;5; 16 Obj -15
   x#5#15 m_job_;15; 1    
   x#5#16 m_job_;16; 1 Obj -21
   x#5#16 b_capa_;5; 9    
   x#5#17 Obj -18 m_job_;17; 1
   x#5#17 b_capa_;5; 12    
   x#5#18 Obj -22 b_capa_;5; 9
   x#5#18 m_job_;18; 1    
   x#5#19 m_job_;19; 1 Obj -22
   x#5#19 b_capa_;5; 16    
   x#5#20 m_job_;20; 1 b_capa_;5; 5
   x#5#20 Obj -22    
   x#5#21 m_job_;21; 1 b_capa_;5; 8
   x#5#21 Obj -18    
   x#5#22 b_capa_;5; 6 Obj -18
   x#5#22 m_job_;22; 1    
   x#5#23 m_job_;23; 1 b_capa_;5; 9
   x#5#23 Obj -19    
   x#5#24 Obj -24 b_capa_;5; 15
   x#5#24 m_job_;24; 1    
   x#5#25 Obj -22 b_capa_;5; 15
   x#5#25 m_job_;25; 1    
   x#5#26 Obj -24 b_capa_;5; 5
   x#5#26 m_job_;26; 1    
   x#5#27 Obj -21 b_capa_;5; 15
   x#5#27 m_job_;27; 1    
   x#5#28 Obj -24 b_capa_;5; 5
   x#5#28 m_job_;28; 1    
   x#5#29 Obj -25 b_capa_;5; 7
   x#5#29 m_job_;29; 1    
   x#5#30 m_job_;30; 1 b_capa_;5; 8
   x#5#30 Obj -15    
   x#5#31 m_job_;31; 1 Obj -21
   x#5#31 b_capa_;5; 8    
   x#5#32 b_capa_;5; 8 Obj -15
   x#5#32 m_job_;32; 1    
   x#5#33 m_job_;33; 1 b_capa_;5; 10
   x#5#33 Obj -23    
   x#5#34 m_job_;34; 1 Obj -18
   x#5#34 b_capa_;5; 14    
   x#5#35 m_job_;35; 1 Obj -23
   x#5#35 b_capa_;5; 10    
   x#5#36 m_job_;36; 1 Obj -18
   x#5#36 b_capa_;5; 5    
   x#5#37 m_job_;37; 1 b_capa_;5; 16
   x#5#37 Obj -17    
   x#5#38 b_capa_;5; 6 m_job_;38; 1
   x#5#38 Obj -22    
   x#5#39 Obj -15 b_capa_;5; 12
   x#5#39 m_job_;39; 1    
   x#5#40 Obj -20 m_job_;40; 1
   x#5#40 b_capa_;5; 12    
   x#5#41 Obj -17 b_capa_;5; 9
   x#5#41 m_job_;41; 1    
   x#5#42 b_capa_;5; 11 Obj -17
   x#5#42 m_job_;42; 1    
   x#5#43 m_job_;43; 1 b_capa_;5; 7
   x#5#43 Obj -18    
   x#5#44 m_job_;44; 1 Obj -15
   x#5#44 b_capa_;5; 15    
   x#5#45 m_job_;45; 1 Obj -17
   x#5#45 b_capa_;5; 8    
   x#5#46 m_job_;46; 1 b_capa_;5; 5
   x#5#46 Obj -17    
   x#5#47 b_capa_;5; 15 Obj -23
   x#5#47 m_job_;47; 1    
   x#5#48 Obj -16 m_job_;48; 1
   x#5#48 b_capa_;5; 8    
   x#6#1 m_job_;1; 1 Obj -15
   x#6#1 b_capa_;6; 5    
   x#6#2 b_capa_;6; 12 m_job_;2; 1
   x#6#2 Obj -25    
   x#6#3 b_capa_;6; 10 m_job_;3; 1
   x#6#3 Obj -25    
   x#6#4 Obj -21 b_capa_;6; 12
   x#6#4 m_job_;4; 1    
   x#6#5 m_job_;5; 1 b_capa_;6; 8
   x#6#5 Obj -22    
   x#6#6 Obj -17 m_job_;6; 1
   x#6#6 b_capa_;6; 9    
   x#6#7 Obj -19 b_capa_;6; 12
   x#6#7 m_job_;7; 1    
   x#6#8 m_job_;8; 1 Obj -18
   x#6#8 b_capa_;6; 10    
   x#6#9 b_capa_;6; 14 m_job_;9; 1
   x#6#9 Obj -25    
   x#6#10 b_capa_;6; 9 Obj -20
   x#6#10 m_job_;10; 1    
   x#6#11 m_job_;11; 1 Obj -15
   x#6#11 b_capa_;6; 12    
   x#6#12 b_capa_;6; 12 m_job_;12; 1
   x#6#12 Obj -25    
   x#6#13 b_capa_;6; 6 Obj -16
   x#6#13 m_job_;13; 1    
   x#6#14 m_job_;14; 1 b_capa_;6; 14
   x#6#14 Obj -20    
   x#6#15 b_capa_;6; 6 Obj -18
   x#6#15 m_job_;15; 1    
   x#6#16 m_job_;16; 1 b_capa_;6; 6
   x#6#16 Obj -16    
   x#6#17 Obj -17 m_job_;17; 1
   x#6#17 b_capa_;6; 7    
   x#6#18 m_job_;18; 1 b_capa_;6; 13
   x#6#18 Obj -18    
   x#6#19 m_job_;19; 1 b_capa_;6; 8
   x#6#19 Obj -16    
   x#6#20 Obj -21 m_job_;20; 1
   x#6#20 b_capa_;6; 12    
   x#6#21 m_job_;21; 1 Obj -21
   x#6#21 b_capa_;6; 13    
   x#6#22 Obj -24 b_capa_;6; 9
   x#6#22 m_job_;22; 1    
   x#6#23 b_capa_;6; 11 m_job_;23; 1
   x#6#23 Obj -24    
   x#6#24 b_capa_;6; 7 Obj -15
   x#6#24 m_job_;24; 1    
   x#6#25 Obj -17 m_job_;25; 1
   x#6#25 b_capa_;6; 14    
   x#6#26 Obj -16 b_capa_;6; 16
   x#6#26 m_job_;26; 1    
   x#6#27 Obj -19 b_capa_;6; 6
   x#6#27 m_job_;27; 1    
   x#6#28 b_capa_;6; 14 m_job_;28; 1
   x#6#28 Obj -18    
   x#6#29 Obj -20 m_job_;29; 1
   x#6#29 b_capa_;6; 5    
   x#6#30 b_capa_;6; 11 m_job_;30; 1
   x#6#30 Obj -17    
   x#6#31 b_capa_;6; 12 m_job_;31; 1
   x#6#31 Obj -18    
   x#6#32 Obj -15 b_capa_;6; 9
   x#6#32 m_job_;32; 1    
   x#6#33 b_capa_;6; 12 Obj -18
   x#6#33 m_job_;33; 1    
   x#6#34 Obj -16 b_capa_;6; 11
   x#6#34 m_job_;34; 1    
   x#6#35 b_capa_;6; 7 m_job_;35; 1
   x#6#35 Obj -20    
   x#6#36 b_capa_;6; 14 Obj -16
   x#6#36 m_job_;36; 1    
   x#6#37 m_job_;37; 1 b_capa_;6; 7
   x#6#37 Obj -17    
   x#6#38 m_job_;38; 1 b_capa_;6; 16
   x#6#38 Obj -24    
   x#6#39 m_job_;39; 1 Obj -20
   x#6#39 b_capa_;6; 11    
   x#6#40 m_job_;40; 1 b_capa_;6; 6
   x#6#40 Obj -17    
   x#6#41 m_job_;41; 1 b_capa_;6; 15
   x#6#41 Obj -17    
   x#6#42 m_job_;42; 1 b_capa_;6; 7
   x#6#42 Obj -19    
   x#6#43 Obj -16 b_capa_;6; 15
   x#6#43 m_job_;43; 1    
   x#6#44 b_capa_;6; 9 Obj -18
   x#6#44 m_job_;44; 1    
   x#6#45 Obj -24 b_capa_;6; 10
   x#6#45 m_job_;45; 1    
   x#6#46 m_job_;46; 1 Obj -15
   x#6#46 b_capa_;6; 10    
   x#6#47 b_capa_;6; 14 Obj -16
   x#6#47 m_job_;47; 1    
   x#6#48 b_capa_;6; 11 m_job_;48; 1
   x#6#48 Obj -16    
   x#7#1 b_capa_;7; 14 Obj -15
   x#7#1 m_job_;1; 1    
   x#7#2 m_job_;2; 1 b_capa_;7; 13
   x#7#2 Obj -24    
   x#7#3 Obj -23 m_job_;3; 1
   x#7#3 b_capa_;7; 5    
   x#7#4 m_job_;4; 1 b_capa_;7; 7
   x#7#4 Obj -24    
   x#7#5 b_capa_;7; 13 Obj -25
   x#7#5 m_job_;5; 1    
   x#7#6 Obj -23 m_job_;6; 1
   x#7#6 b_capa_;7; 8    
   x#7#7 Obj -25 b_capa_;7; 11
   x#7#7 m_job_;7; 1    
   x#7#8 Obj -20 b_capa_;7; 8
   x#7#8 m_job_;8; 1    
   x#7#9 Obj -19 b_capa_;7; 7
   x#7#9 m_job_;9; 1    
   x#7#10 Obj -16 b_capa_;7; 13
   x#7#10 m_job_;10; 1    
   x#7#11 m_job_;11; 1 Obj -19
   x#7#11 b_capa_;7; 15    
   x#7#12 Obj -19 b_capa_;7; 13
   x#7#12 m_job_;12; 1    
   x#7#13 m_job_;13; 1 Obj -19
   x#7#13 b_capa_;7; 6    
   x#7#14 m_job_;14; 1 b_capa_;7; 12
   x#7#14 Obj -20    
   x#7#15 b_capa_;7; 11 m_job_;15; 1
   x#7#15 Obj -24    
   x#7#16 m_job_;16; 1 Obj -22
   x#7#16 b_capa_;7; 8    
   x#7#17 Obj -24 b_capa_;7; 9
   x#7#17 m_job_;17; 1    
   x#7#18 b_capa_;7; 6 m_job_;18; 1
   x#7#18 Obj -16    
   x#7#19 b_capa_;7; 9 m_job_;19; 1
   x#7#19 Obj -15    
   x#7#20 m_job_;20; 1 Obj -17
   x#7#20 b_capa_;7; 16    
   x#7#21 Obj -25 b_capa_;7; 5
   x#7#21 m_job_;21; 1    
   x#7#22 m_job_;22; 1 b_capa_;7; 15
   x#7#22 Obj -23    
   x#7#23 b_capa_;7; 5 Obj -23
   x#7#23 m_job_;23; 1    
   x#7#24 m_job_;24; 1 b_capa_;7; 14
   x#7#24 Obj -16    
   x#7#25 b_capa_;7; 6 m_job_;25; 1
   x#7#25 Obj -21    
   x#7#26 Obj -22 b_capa_;7; 7
   x#7#26 m_job_;26; 1    
   x#7#27 Obj -16 b_capa_;7; 10
   x#7#27 m_job_;27; 1    
   x#7#28 b_capa_;7; 13 Obj -20
   x#7#28 m_job_;28; 1    
   x#7#29 m_job_;29; 1 b_capa_;7; 13
   x#7#29 Obj -17    
   x#7#30 Obj -25 b_capa_;7; 16
   x#7#30 m_job_;30; 1    
   x#7#31 Obj -15 m_job_;31; 1
   x#7#31 b_capa_;7; 11    
   x#7#32 b_capa_;7; 6 m_job_;32; 1
   x#7#32 Obj -22    
   x#7#33 m_job_;33; 1 b_capa_;7; 7
   x#7#33 Obj -15    
   x#7#34 m_job_;34; 1 b_capa_;7; 11
   x#7#34 Obj -24    
   x#7#35 m_job_;35; 1 b_capa_;7; 8
   x#7#35 Obj -20    
   x#7#36 b_capa_;7; 15 m_job_;36; 1
   x#7#36 Obj -22    
   x#7#37 m_job_;37; 1 Obj -19
   x#7#37 b_capa_;7; 13    
   x#7#38 b_capa_;7; 5 m_job_;38; 1
   x#7#38 Obj -23    
   x#7#39 Obj -23 m_job_;39; 1
   x#7#39 b_capa_;7; 15    
   x#7#40 Obj -16 m_job_;40; 1
   x#7#40 b_capa_;7; 12    
   x#7#41 Obj -23 b_capa_;7; 14
   x#7#41 m_job_;41; 1    
   x#7#42 Obj -15 b_capa_;7; 5
   x#7#42 m_job_;42; 1    
   x#7#43 b_capa_;7; 10 Obj -15
   x#7#43 m_job_;43; 1    
   x#7#44 m_job_;44; 1 Obj -17
   x#7#44 b_capa_;7; 11    
   x#7#45 Obj -22 m_job_;45; 1
   x#7#45 b_capa_;7; 15    
   x#7#46 Obj -16 b_capa_;7; 12
   x#7#46 m_job_;46; 1    
   x#7#47 m_job_;47; 1 Obj -22
   x#7#47 b_capa_;7; 8    
   x#7#48 b_capa_;7; 7 Obj -24
   x#7#48 m_job_;48; 1    
   x#8#1 Obj -20 m_job_;1; 1
   x#8#1 b_capa_;8; 13    
   x#8#2 m_job_;2; 1 Obj -16
   x#8#2 b_capa_;8; 9    
   x#8#3 Obj -24 b_capa_;8; 8
   x#8#3 m_job_;3; 1    
   x#8#4 Obj -21 b_capa_;8; 14
   x#8#4 m_job_;4; 1    
   x#8#5 Obj -17 b_capa_;8; 5
   x#8#5 m_job_;5; 1    
   x#8#6 m_job_;6; 1 Obj -21
   x#8#6 b_capa_;8; 6    
   x#8#7 m_job_;7; 1 Obj -25
   x#8#7 b_capa_;8; 10    
   x#8#8 m_job_;8; 1 Obj -16
   x#8#8 b_capa_;8; 16    
   x#8#9 m_job_;9; 1 Obj -25
   x#8#9 b_capa_;8; 6    
   x#8#10 m_job_;10; 1 Obj -21
   x#8#10 b_capa_;8; 6    
   x#8#11 m_job_;11; 1 b_capa_;8; 11
   x#8#11 Obj -24    
   x#8#12 b_capa_;8; 9 Obj -15
   x#8#12 m_job_;12; 1    
   x#8#13 m_job_;13; 1 b_capa_;8; 7
   x#8#13 Obj -18    
   x#8#14 b_capa_;8; 9 Obj -21
   x#8#14 m_job_;14; 1    
   x#8#15 b_capa_;8; 9 Obj -23
   x#8#15 m_job_;15; 1    
   x#8#16 Obj -15 b_capa_;8; 11
   x#8#16 m_job_;16; 1    
   x#8#17 Obj -21 b_capa_;8; 6
   x#8#17 m_job_;17; 1    
   x#8#18 Obj -17 m_job_;18; 1
   x#8#18 b_capa_;8; 8    
   x#8#19 Obj -21 b_capa_;8; 10
   x#8#19 m_job_;19; 1    
   x#8#20 m_job_;20; 1 b_capa_;8; 8
   x#8#20 Obj -18    
   x#8#21 m_job_;21; 1 b_capa_;8; 15
   x#8#21 Obj -23    
   x#8#22 Obj -20 m_job_;22; 1
   x#8#22 b_capa_;8; 11    
   x#8#23 Obj -18 m_job_;23; 1
   x#8#23 b_capa_;8; 11    
   x#8#24 b_capa_;8; 15 Obj -19
   x#8#24 m_job_;24; 1    
   x#8#25 m_job_;25; 1 b_capa_;8; 7
   x#8#25 Obj -16    
   x#8#26 Obj -16 b_capa_;8; 9
   x#8#26 m_job_;26; 1    
   x#8#27 Obj -21 b_capa_;8; 5
   x#8#27 m_job_;27; 1    
   x#8#28 b_capa_;8; 16 m_job_;28; 1
   x#8#28 Obj -18    
   x#8#29 Obj -22 b_capa_;8; 13
   x#8#29 m_job_;29; 1    
   x#8#30 Obj -24 m_job_;30; 1
   x#8#30 b_capa_;8; 9    
   x#8#31 m_job_;31; 1 Obj -17
   x#8#31 b_capa_;8; 7    
   x#8#32 m_job_;32; 1 Obj -17
   x#8#32 b_capa_;8; 10    
   x#8#33 m_job_;33; 1 b_capa_;8; 16
   x#8#33 Obj -15    
   x#8#34 Obj -25 m_job_;34; 1
   x#8#34 b_capa_;8; 11    
   x#8#35 b_capa_;8; 9 m_job_;35; 1
   x#8#35 Obj -22    
   x#8#36 m_job_;36; 1 Obj -25
   x#8#36 b_capa_;8; 14    
   x#8#37 m_job_;37; 1 b_capa_;8; 9
   x#8#37 Obj -17    
   x#8#38 Obj -16 m_job_;38; 1
   x#8#38 b_capa_;8; 6    
   x#8#39 m_job_;39; 1 b_capa_;8; 13
   x#8#39 Obj -19    
   x#8#40 b_capa_;8; 14 Obj -21
   x#8#40 m_job_;40; 1    
   x#8#41 b_capa_;8; 9 Obj -22
   x#8#41 m_job_;41; 1    
   x#8#42 Obj -19 b_capa_;8; 15
   x#8#42 m_job_;42; 1    
   x#8#43 b_capa_;8; 7 Obj -23
   x#8#43 m_job_;43; 1    
   x#8#44 m_job_;44; 1 b_capa_;8; 13
   x#8#44 Obj -21    
   x#8#45 b_capa_;8; 6 Obj -15
   x#8#45 m_job_;45; 1    
   x#8#46 m_job_;46; 1 Obj -17
   x#8#46 b_capa_;8; 16    
   x#8#47 b_capa_;8; 14 m_job_;47; 1
   x#8#47 Obj -15    
   x#8#48 b_capa_;8; 16 Obj -25
   x#8#48 m_job_;48; 1    
   INTEND 'MARKER'   'INTEND'  
RHS  
   RHS m_job_;1; 1 m_job_;2; 1
   RHS m_job_;3; 1 m_job_;4; 1
   RHS m_job_;5; 1 m_job_;6; 1
   RHS m_job_;7; 1 m_job_;8; 1
   RHS m_job_;9; 1 m_job_;10; 1
   RHS m_job_;11; 1 m_job_;12; 1
   RHS m_job_;13; 1 m_job_;14; 1
   RHS m_job_;15; 1 m_job_;16; 1
   RHS m_job_;17; 1 m_job_;18; 1
   RHS m_job_;19; 1 m_job_;20; 1
   RHS m_job_;21; 1 m_job_;22; 1
   RHS m_job_;23; 1 m_job_;24; 1
   RHS m_job_;25; 1 m_job_;26; 1
   RHS m_job_;27; 1 m_job_;28; 1
   RHS m_job_;29; 1 m_job_;30; 1
   RHS m_job_;31; 1 m_job_;32; 1
   RHS m_job_;33; 1 m_job_;34; 1
   RHS m_job_;35; 1 m_job_;36; 1
   RHS m_job_;37; 1 m_job_;38; 1
   RHS m_job_;39; 1 m_job_;40; 1
   RHS m_job_;41; 1 m_job_;42; 1
   RHS m_job_;43; 1 m_job_;44; 1
   RHS m_job_;45; 1 m_job_;46; 1
   RHS m_job_;47; 1 m_job_;48; 1
   RHS b_capa_;1; 46 b_capa_;2; 51
   RHS b_capa_;3; 47 b_capa_;4; 48
   RHS b_capa_;5; 48 b_capa_;6; 49
   RHS b_capa_;7; 49 b_capa_;8; 49
BOUNDS  
 UP Bound x#1#1 1    
 UP Bound x#1#2 1    
 UP Bound x#1#3 1    
 UP Bound x#1#4 1    
 UP Bound x#1#5 1    
 UP Bound x#1#6 1    
 UP Bound x#1#7 1    
 UP Bound x#1#8 1    
 UP Bound x#1#9 1    
 UP Bound x#1#10 1    
 UP Bound x#1#11 1    
 UP Bound x#1#12 1    
 UP Bound x#1#13 1    
 UP Bound x#1#14 1    
 UP Bound x#1#15 1    
 UP Bound x#1#16 1    
 UP Bound x#1#17 1    
 UP Bound x#1#18 1    
 UP Bound x#1#19 1    
 UP Bound x#1#20 1    
 UP Bound x#1#21 1    
 UP Bound x#1#22 1    
 UP Bound x#1#23 1    
 UP Bound x#1#24 1    
 UP Bound x#1#25 1    
 UP Bound x#1#26 1    
 UP Bound x#1#27 1    
 UP Bound x#1#28 1    
 UP Bound x#1#29 1    
 UP Bound x#1#30 1    
 UP Bound x#1#31 1    
 UP Bound x#1#32 1    
 UP Bound x#1#33 1    
 UP Bound x#1#34 1    
 UP Bound x#1#35 1    
 UP Bound x#1#36 1    
 UP Bound x#1#37 1    
 UP Bound x#1#38 1    
 UP Bound x#1#39 1    
 UP Bound x#1#40 1    
 UP Bound x#1#41 1    
 UP Bound x#1#42 1    
 UP Bound x#1#43 1    
 UP Bound x#1#44 1    
 UP Bound x#1#45 1    
 UP Bound x#1#46 1    
 UP Bound x#1#47 1    
 UP Bound x#1#48 1    
 UP Bound x#2#1 1    
 UP Bound x#2#2 1    
 UP Bound x#2#3 1    
 UP Bound x#2#4 1    
 UP Bound x#2#5 1    
 UP Bound x#2#6 1    
 UP Bound x#2#7 1    
 UP Bound x#2#8 1    
 UP Bound x#2#9 1    
 UP Bound x#2#10 1    
 UP Bound x#2#11 1    
 UP Bound x#2#12 1    
 UP Bound x#2#13 1    
 UP Bound x#2#14 1    
 UP Bound x#2#15 1    
 UP Bound x#2#16 1    
 UP Bound x#2#17 1    
 UP Bound x#2#18 1    
 UP Bound x#2#19 1    
 UP Bound x#2#20 1    
 UP Bound x#2#21 1    
 UP Bound x#2#22 1    
 UP Bound x#2#23 1    
 UP Bound x#2#24 1    
 UP Bound x#2#25 1    
 UP Bound x#2#26 1    
 UP Bound x#2#27 1    
 UP Bound x#2#28 1    
 UP Bound x#2#29 1    
 UP Bound x#2#30 1    
 UP Bound x#2#31 1    
 UP Bound x#2#32 1    
 UP Bound x#2#33 1    
 UP Bound x#2#34 1    
 UP Bound x#2#35 1    
 UP Bound x#2#36 1    
 UP Bound x#2#37 1    
 UP Bound x#2#38 1    
 UP Bound x#2#39 1    
 UP Bound x#2#40 1    
 UP Bound x#2#41 1    
 UP Bound x#2#42 1    
 UP Bound x#2#43 1    
 UP Bound x#2#44 1    
 UP Bound x#2#45 1    
 UP Bound x#2#46 1    
 UP Bound x#2#47 1    
 UP Bound x#2#48 1    
 UP Bound x#3#1 1    
 UP Bound x#3#2 1    
 UP Bound x#3#3 1    
 UP Bound x#3#4 1    
 UP Bound x#3#5 1    
 UP Bound x#3#6 1    
 UP Bound x#3#7 1    
 UP Bound x#3#8 1    
 UP Bound x#3#9 1    
 UP Bound x#3#10 1    
 UP Bound x#3#11 1    
 UP Bound x#3#12 1    
 UP Bound x#3#13 1    
 UP Bound x#3#14 1    
 UP Bound x#3#15 1    
 UP Bound x#3#16 1    
 UP Bound x#3#17 1    
 UP Bound x#3#18 1    
 UP Bound x#3#19 1    
 UP Bound x#3#20 1    
 UP Bound x#3#21 1    
 UP Bound x#3#22 1    
 UP Bound x#3#23 1    
 UP Bound x#3#24 1    
 UP Bound x#3#25 1    
 UP Bound x#3#26 1    
 UP Bound x#3#27 1    
 UP Bound x#3#28 1    
 UP Bound x#3#29 1    
 UP Bound x#3#30 1    
 UP Bound x#3#31 1    
 UP Bound x#3#32 1    
 UP Bound x#3#33 1    
 UP Bound x#3#34 1    
 UP Bound x#3#35 1    
 UP Bound x#3#36 1    
 UP Bound x#3#37 1    
 UP Bound x#3#38 1    
 UP Bound x#3#39 1    
 UP Bound x#3#40 1    
 UP Bound x#3#41 1    
 UP Bound x#3#42 1    
 UP Bound x#3#43 1    
 UP Bound x#3#44 1    
 UP Bound x#3#45 1    
 UP Bound x#3#46 1    
 UP Bound x#3#47 1    
 UP Bound x#3#48 1    
 UP Bound x#4#1 1    
 UP Bound x#4#2 1    
 UP Bound x#4#3 1    
 UP Bound x#4#4 1    
 UP Bound x#4#5 1    
 UP Bound x#4#6 1    
 UP Bound x#4#7 1    
 UP Bound x#4#8 1    
 UP Bound x#4#9 1    
 UP Bound x#4#10 1    
 UP Bound x#4#11 1    
 UP Bound x#4#12 1    
 UP Bound x#4#13 1    
 UP Bound x#4#14 1    
 UP Bound x#4#15 1    
 UP Bound x#4#16 1    
 UP Bound x#4#17 1    
 UP Bound x#4#18 1    
 UP Bound x#4#19 1    
 UP Bound x#4#20 1    
 UP Bound x#4#21 1    
 UP Bound x#4#22 1    
 UP Bound x#4#23 1    
 UP Bound x#4#24 1    
 UP Bound x#4#25 1    
 UP Bound x#4#26 1    
 UP Bound x#4#27 1    
 UP Bound x#4#28 1    
 UP Bound x#4#29 1    
 UP Bound x#4#30 1    
 UP Bound x#4#31 1    
 UP Bound x#4#32 1    
 UP Bound x#4#33 1    
 UP Bound x#4#34 1    
 UP Bound x#4#35 1    
 UP Bound x#4#36 1    
 UP Bound x#4#37 1    
 UP Bound x#4#38 1    
 UP Bound x#4#39 1    
 UP Bound x#4#40 1    
 UP Bound x#4#41 1    
 UP Bound x#4#42 1    
 UP Bound x#4#43 1    
 UP Bound x#4#44 1    
 UP Bound x#4#45 1    
 UP Bound x#4#46 1    
 UP Bound x#4#47 1    
 UP Bound x#4#48 1    
 UP Bound x#5#1 1    
 UP Bound x#5#2 1    
 UP Bound x#5#3 1    
 UP Bound x#5#4 1    
 UP Bound x#5#5 1    
 UP Bound x#5#6 1    
 UP Bound x#5#7 1    
 UP Bound x#5#8 1    
 UP Bound x#5#9 1    
 UP Bound x#5#10 1    
 UP Bound x#5#11 1    
 UP Bound x#5#12 1    
 UP Bound x#5#13 1    
 UP Bound x#5#14 1    
 UP Bound x#5#15 1    
 UP Bound x#5#16 1    
 UP Bound x#5#17 1    
 UP Bound x#5#18 1    
 UP Bound x#5#19 1    
 UP Bound x#5#20 1    
 UP Bound x#5#21 1    
 UP Bound x#5#22 1    
 UP Bound x#5#23 1    
 UP Bound x#5#24 1    
 UP Bound x#5#25 1    
 UP Bound x#5#26 1    
 UP Bound x#5#27 1    
 UP Bound x#5#28 1    
 UP Bound x#5#29 1    
 UP Bound x#5#30 1    
 UP Bound x#5#31 1    
 UP Bound x#5#32 1    
 UP Bound x#5#33 1    
 UP Bound x#5#34 1    
 UP Bound x#5#35 1    
 UP Bound x#5#36 1    
 UP Bound x#5#37 1    
 UP Bound x#5#38 1    
 UP Bound x#5#39 1    
 UP Bound x#5#40 1    
 UP Bound x#5#41 1    
 UP Bound x#5#42 1    
 UP Bound x#5#43 1    
 UP Bound x#5#44 1    
 UP Bound x#5#45 1    
 UP Bound x#5#46 1    
 UP Bound x#5#47 1    
 UP Bound x#5#48 1    
 UP Bound x#6#1 1    
 UP Bound x#6#2 1    
 UP Bound x#6#3 1    
 UP Bound x#6#4 1    
 UP Bound x#6#5 1    
 UP Bound x#6#6 1    
 UP Bound x#6#7 1    
 UP Bound x#6#8 1    
 UP Bound x#6#9 1    
 UP Bound x#6#10 1    
 UP Bound x#6#11 1    
 UP Bound x#6#12 1    
 UP Bound x#6#13 1    
 UP Bound x#6#14 1    
 UP Bound x#6#15 1    
 UP Bound x#6#16 1    
 UP Bound x#6#17 1    
 UP Bound x#6#18 1    
 UP Bound x#6#19 1    
 UP Bound x#6#20 1    
 UP Bound x#6#21 1    
 UP Bound x#6#22 1    
 UP Bound x#6#23 1    
 UP Bound x#6#24 1    
 UP Bound x#6#25 1    
 UP Bound x#6#26 1    
 UP Bound x#6#27 1    
 UP Bound x#6#28 1    
 UP Bound x#6#29 1    
 UP Bound x#6#30 1    
 UP Bound x#6#31 1    
 UP Bound x#6#32 1    
 UP Bound x#6#33 1    
 UP Bound x#6#34 1    
 UP Bound x#6#35 1    
 UP Bound x#6#36 1    
 UP Bound x#6#37 1    
 UP Bound x#6#38 1    
 UP Bound x#6#39 1    
 UP Bound x#6#40 1    
 UP Bound x#6#41 1    
 UP Bound x#6#42 1    
 UP Bound x#6#43 1    
 UP Bound x#6#44 1    
 UP Bound x#6#45 1    
 UP Bound x#6#46 1    
 UP Bound x#6#47 1    
 UP Bound x#6#48 1    
 UP Bound x#7#1 1    
 UP Bound x#7#2 1    
 UP Bound x#7#3 1    
 UP Bound x#7#4 1    
 UP Bound x#7#5 1    
 UP Bound x#7#6 1    
 UP Bound x#7#7 1    
 UP Bound x#7#8 1    
 UP Bound x#7#9 1    
 UP Bound x#7#10 1    
 UP Bound x#7#11 1    
 UP Bound x#7#12 1    
 UP Bound x#7#13 1    
 UP Bound x#7#14 1    
 UP Bound x#7#15 1    
 UP Bound x#7#16 1    
 UP Bound x#7#17 1    
 UP Bound x#7#18 1    
 UP Bound x#7#19 1    
 UP Bound x#7#20 1    
 UP Bound x#7#21 1    
 UP Bound x#7#22 1    
 UP Bound x#7#23 1    
 UP Bound x#7#24 1    
 UP Bound x#7#25 1    
 UP Bound x#7#26 1    
 UP Bound x#7#27 1    
 UP Bound x#7#28 1    
 UP Bound x#7#29 1    
 UP Bound x#7#30 1    
 UP Bound x#7#31 1    
 UP Bound x#7#32 1    
 UP Bound x#7#33 1    
 UP Bound x#7#34 1    
 UP Bound x#7#35 1    
 UP Bound x#7#36 1    
 UP Bound x#7#37 1    
 UP Bound x#7#38 1    
 UP Bound x#7#39 1    
 UP Bound x#7#40 1    
 UP Bound x#7#41 1    
 UP Bound x#7#42 1    
 UP Bound x#7#43 1    
 UP Bound x#7#44 1    
 UP Bound x#7#45 1    
 UP Bound x#7#46 1    
 UP Bound x#7#47 1    
 UP Bound x#7#48 1    
 UP Bound x#8#1 1    
 UP Bound x#8#2 1    
 UP Bound x#8#3 1    
 UP Bound x#8#4 1    
 UP Bound x#8#5 1    
 UP Bound x#8#6 1    
 UP Bound x#8#7 1    
 UP Bound x#8#8 1    
 UP Bound x#8#9 1    
 UP Bound x#8#10 1    
 UP Bound x#8#11 1    
 UP Bound x#8#12 1    
 UP Bound x#8#13 1    
 UP Bound x#8#14 1    
 UP Bound x#8#15 1    
 UP Bound x#8#16 1    
 UP Bound x#8#17 1    
 UP Bound x#8#18 1    
 UP Bound x#8#19 1    
 UP Bound x#8#20 1    
 UP Bound x#8#21 1    
 UP Bound x#8#22 1    
 UP Bound x#8#23 1    
 UP Bound x#8#24 1    
 UP Bound x#8#25 1    
 UP Bound x#8#26 1    
 UP Bound x#8#27 1    
 UP Bound x#8#28 1    
 UP Bound x#8#29 1    
 UP Bound x#8#30 1    
 UP Bound x#8#31 1    
 UP Bound x#8#32 1    
 UP Bound x#8#33 1    
 UP Bound x#8#34 1    
 UP Bound x#8#35 1    
 UP Bound x#8#36 1    
 UP Bound x#8#37 1    
 UP Bound x#8#38 1    
 UP Bound x#8#39 1    
 UP Bound x#8#40 1    
 UP Bound x#8#41 1    
 UP Bound x#8#42 1    
 UP Bound x#8#43 1    
 UP Bound x#8#44 1    
 UP Bound x#8#45 1    
 UP Bound x#8#46 1    
 UP Bound x#8#47 1    
 UP Bound x#8#48 1    
ENDATA  
